c User generated cnf file
p cnf 11 59
2 10 -2 0 
-1 10 10 0 
-1 4 1 0 
-5 7 11 0 
3 11 -10 0 
-3 3 9 0 
2 -2 3 0 
6 6 -10 0 
9 8 -7 0 
6 5 -3 0 
10 -11 1 0 
-9 7 4 0 
7 9 -11 0 
8 -4 9 0 
9 -6 7 0 
2 10 -1 0 
5 -7 2 0 
-1 3 3 0 
6 10 -9 0 
-4 9 6 0 
4 10 -5 0 
6 2 -7 0 
11 7 -3 0 
7 1 -1 0 
5 7 -5 0 
1 -6 9 0 
-7 11 8 0 
9 1 -4 0 
9 4 -1 0 
9 -4 1 0 
-7 8 8 0 
-5 3 1 0 
-4 2 2 0 
10 -11 9 0 
10 -4 4 0 
-5 6 8 0 
2 -8 1 0 
11 -3 9 0 
-10 10 3 0 
9 11 -6 0 
-7 4 11 0 
-9 6 10 0 
2 -3 9 0 
2 10 -10 0 
4 -10 2 0 
11 5 -7 0 
1 -6 11 0 
6 -11 11 0 
1 8 -8 0 
-5 10 3 0 
-9 10 1 0 
3 8 -5 0 
-5 5 1 0 
-7 10 10 0 
7 -4 7 0 
-10 6 8 0 
5 5 -8 0 
7 -3 10 0 
9 1 -10 0 
